\ Model TSP Problem
\ LP format - for model browsing. Use MPS format to capture full model detail.
Minimize
  X[0,0] + X[0,1] + X[0,2] + X[0,3] + X[0,4] + X[0,5] + X[0,6] + X[1,0]
   + X[1,1] + X[1,2] + X[1,3] + X[1,4] + X[1,5] + X[1,6] + X[2,0] + X[2,1]
   + X[2,2] + X[2,3] + X[2,4] + X[2,5] + X[2,6] + X[3,0] + X[3,1] + X[3,2]
   + X[3,3] + X[3,4] + X[3,5] + X[3,6] + X[4,0] + X[4,1] + X[4,2] + X[4,3]
   + X[4,4] + X[4,5] + X[4,6] + X[5,0] + X[5,1] + X[5,2] + X[5,3] + X[5,4]
   + X[5,5] + X[5,6] + X[6,0] + X[6,1] + X[6,2] + X[6,3] + X[6,4] + X[6,5]
   + X[6,6]
Subject To
 R0: X[0,0] + X[1,0] + X[2,0] + X[3,0] + X[4,0] + X[5,0] + X[6,0] = 1
 R1: X[0,1] + X[1,1] + X[2,1] + X[3,1] + X[4,1] + X[5,1] + X[6,1] = 1
 R2: X[0,2] + X[1,2] + X[2,2] + X[3,2] + X[4,2] + X[5,2] + X[6,2] = 1
 R3: X[0,3] + X[1,3] + X[2,3] + X[3,3] + X[4,3] + X[5,3] + X[6,3] = 1
 R4: X[0,4] + X[1,4] + X[2,4] + X[3,4] + X[4,4] + X[5,4] + X[6,4] = 1
 R5: X[0,5] + X[1,5] + X[2,5] + X[3,5] + X[4,5] + X[5,5] + X[6,5] = 1
 R6: X[0,6] + X[1,6] + X[2,6] + X[3,6] + X[4,6] + X[5,6] + X[6,6] = 1
 R7: X[0,0] + X[0,1] + X[0,2] + X[0,3] + X[0,4] + X[0,5] + X[0,6] = 1
 R8: X[1,0] + X[1,1] + X[1,2] + X[1,3] + X[1,4] + X[1,5] + X[1,6] = 1
 R9: X[2,0] + X[2,1] + X[2,2] + X[2,3] + X[2,4] + X[2,5] + X[2,6] = 1
 R10: X[3,0] + X[3,1] + X[3,2] + X[3,3] + X[3,4] + X[3,5] + X[3,6] = 1
 R11: X[4,0] + X[4,1] + X[4,2] + X[4,3] + X[4,4] + X[4,5] + X[4,6] = 1
 R12: X[5,0] + X[5,1] + X[5,2] + X[5,3] + X[5,4] + X[5,5] + X[5,6] = 1
 R13: X[6,0] + X[6,1] + X[6,2] + X[6,3] + X[6,4] + X[6,5] + X[6,6] = 1
 R14: - 100000 X[0,1] - T[0] + T[1] >= -99983.8754845034
 R15: - 100000 X[0,2] - T[0] + T[2] >= -99984.86725404958
 R16: - 100000 X[0,3] - T[0] + T[3] >= -99981
 R17: - 100000 X[0,4] - T[0] + T[4] >= -99981.88922972372
 R18: - 100000 X[0,5] - T[0] + T[5] >= -99979.90024875775
 R19: - 100000 X[0,6] - T[0] + T[6] >= -99998.58578643763
 R20: - 100000 X[1,0] + T[0] - T[1] >= -99893.8754845034
 R21: - 100000 X[1,2] - T[1] + T[2] >= -99909
 R22: - 100000 X[1,3] - T[1] + T[3] >= -99906.39444872453
 R23: - 100000 X[1,4] - T[1] + T[4] >= -99905.527864045
 R24: - 100000 X[1,5] - T[1] + T[5] >= -99904.34314575051
 R25: - 100000 X[1,6] - T[1] + T[6] >= -99894.96670362163
 R26: - 100000 X[2,0] + T[0] - T[2] >= -99894.86725404958
 R27: - 100000 X[2,1] + T[1] - T[2] >= -99909
 R28: - 100000 X[2,3] - T[2] + T[3] >= -99905.527864045
 R29: - 100000 X[2,4] - T[2] + T[4] >= -99905
 R30: - 100000 X[2,5] - T[2] + T[5] >= -99903.59687576257
 R31: - 100000 X[2,6] - T[2] + T[6] >= -99895.96433115238
 R32: - 100000 X[3,0] + T[0] - T[3] >= -99891
 R33: - 100000 X[3,1] + T[1] - T[3] >= -99906.39444872453
 R34: - 100000 X[3,2] + T[2] - T[3] >= -99905.527864045
 R35: - 100000 X[3,4] - T[3] + T[4] >= -99907.7639320225
 R36: - 100000 X[3,5] - T[3] + T[5] >= -99907.7639320225
 R37: - 100000 X[3,6] - T[3] + T[6] >= -99891.97224362267
 R38: - 100000 X[4,0] + T[0] - T[4] >= -99891.88922972372
 R39: - 100000 X[4,1] + T[1] - T[4] >= -99905.527864045
 R40: - 100000 X[4,2] + T[2] - T[4] >= -99905
 R41: - 100000 X[4,3] + T[3] - T[4] >= -99907.7639320225
 R42: - 100000 X[4,5] - T[4] + T[5] >= -99908
 R43: - 100000 X[4,6] - T[4] + T[6] >= -99892.73732349837
 R44: - 100000 X[5,0] + T[0] - T[5] >= -99889.90024875775
 R45: - 100000 X[5,1] + T[1] - T[5] >= -99904.34314575051
 R46: - 100000 X[5,2] + T[2] - T[5] >= -99903.59687576257
 R47: - 100000 X[5,3] + T[3] - T[5] >= -99907.7639320225
 R48: - 100000 X[5,4] + T[4] - T[5] >= -99908
 R49: - 100000 X[5,6] - T[5] + T[6] >= -99890.76461593833
 R50: - 100000 X[6,0] + T[0] - T[6] >= -99908.58578643763
 R51: - 100000 X[6,1] + T[1] - T[6] >= -99894.96670362163
 R52: - 100000 X[6,2] + T[2] - T[6] >= -99895.96433115238
 R53: - 100000 X[6,3] + T[3] - T[6] >= -99891.97224362267
 R54: - 100000 X[6,4] + T[4] - T[6] >= -99892.73732349837
 R55: - 100000 X[6,5] + T[5] - T[6] >= -99890.76461593833
 R56: T[0] >= 0
 R57: T[1] >= 65
 R58: T[2] >= 15
 R59: T[3] >= 621
 R60: T[4] >= 255
 R61: T[5] >= 534
 R62: T[6] >= 448
 R63: T[0] <= 1236
 R64: T[1] <= 146
 R65: T[2] <= 67
 R66: T[3] <= 702
 R67: T[4] <= 324
 R68: T[5] <= 605
 R69: T[6] <= 505
Bounds
Binaries
 X[0,0] X[0,1] X[0,2] X[0,3] X[0,4] X[0,5] X[0,6] X[1,0] X[1,1] X[1,2]
 X[1,3] X[1,4] X[1,5] X[1,6] X[2,0] X[2,1] X[2,2] X[2,3] X[2,4] X[2,5]
 X[2,6] X[3,0] X[3,1] X[3,2] X[3,3] X[3,4] X[3,5] X[3,6] X[4,0] X[4,1]
 X[4,2] X[4,3] X[4,4] X[4,5] X[4,6] X[5,0] X[5,1] X[5,2] X[5,3] X[5,4]
 X[5,5] X[5,6] X[6,0] X[6,1] X[6,2] X[6,3] X[6,4] X[6,5] X[6,6]
End
